lattice_vector    11.783604     0.000000     0.000000 
lattice_vector    -0.677044    16.486517     0.000000 
lattice_vector    -6.069271    -7.232658     3.596481 
atom     7.792306    17.205040    -0.236883    S 
atom     9.572819    16.120031     1.477313    C 
atom     8.566173    14.492962    -0.454903    C 
atom     9.799814    14.500837     0.660769    S 
atom     7.953373    15.600462    -1.030792    C 
atom     8.762364    17.177214     1.094464    C 
atom     8.455543    18.196468     2.099185    C 
atom    10.627020    16.229088     2.390160    C 
atom     8.553869    19.572483     2.055829    N 
atom    11.425987    16.080025     3.225657    N 
atom     6.854648    15.142261    -1.830694    C 
atom     5.816202    15.976519    -2.237973    C 
atom     5.045244    16.781952    -2.572718    N 
atom     8.007936    13.276251    -0.699279    N 
atom     6.816820    13.417455    -1.776538    S 
atom    -2.755018    -7.951181     3.833364    S 
atom    -4.535530    -6.866174     2.119168    C 
atom    -3.528884    -5.239103     4.051384    C 
atom    -4.762526    -5.246979     2.935711    S 
atom    -2.916085    -6.346603     4.627273    C 
atom    -3.725075    -7.923355     2.502017    C 
atom    -3.418254    -8.942610     1.497295    C 
atom    -5.589731    -6.975229     1.206320    C 
atom    -3.516580   -10.318624     1.540651    N 
atom    -6.388698    -6.826166     0.370823    N 
atom    -1.817360    -5.888402     5.427175    C 
atom    -0.778913    -6.722660     5.834454    C 
atom    -0.007955    -7.528094     6.169199    N 
atom    -2.970647    -4.022391     4.295759    N 
atom    -1.779531    -4.163597     5.373019    S
