###### BEGIN STRUCTURE #######
#structure_number = 1
#Z = 4
#number_of_atoms_in_molecule = 12 
#unit_cell_volume = 553.280457 cubic Angstrom
#attempted_spacegroup = 5
#attempted_wyckoff_position = 4c
#site_symmetry_group = 1
#SPGLIB_detected_spacegroup = 5
#"All distances in Angstroms and using Cartesian coordinate system"
lattice_vector    29.493818     0.000000     0.000000 
lattice_vector     0.000000     6.918388     0.000000 
lattice_vector    -3.809635     0.000000     2.711499 
atom    17.257805     2.568057     1.603000    C 
atom    18.236601     1.587493     1.431732    C 
atom    17.866838     0.247986     1.298267    C 
atom    16.518284    -0.110959     1.336071    C 
atom    15.539478     0.869604     1.507339    C 
atom    15.909239     2.209112     1.640804    C 
atom    17.544655     3.607230     1.706541    H 
atom    19.283001     1.866419     1.402446    H 
atom    18.626120    -0.513222     1.165345    H 
atom    16.231422    -1.150133     1.232530    H 
atom    14.493081     0.590678     1.536625    H 
atom    15.149965     2.970320     1.773726    H 
atom     8.426381     2.568057     1.108499    C 
atom     7.447583     1.587493     1.279767    C 
atom     7.817346     0.247986     1.413232    C 
atom     9.165903    -0.110959     1.375428    C 
atom    10.144704     0.869604     1.204160    C 
atom     9.774943     2.209112     1.070695    C 
atom     8.139527     3.607230     1.004958    H 
atom     6.401182     1.866419     1.309053    H 
atom     7.058066    -0.513222     1.546154    H 
atom     9.452761    -1.150133     1.478969    H 
atom    11.191102     0.590678     1.174874    H 
atom    10.534219     2.970320     0.937773    H 
atom     2.510897     6.027251     1.603000    C 
atom     3.489691     5.046687     1.431732    C 
atom     3.119926     3.707180     1.298267    C 
atom     1.771368     3.348236     1.336071    C 
atom     0.792567     4.328799     1.507339    C 
atom     1.162333     5.668306     1.640804    C 
atom     2.797747     7.066424     1.706541    H 
atom     4.536093     5.325614     1.402446    H 
atom     3.879209     2.945973     1.165345    H 
atom     1.484516     2.309062     1.232530    H 
atom    -0.253828     4.049872     1.536625    H 
atom     0.403054     6.429513     1.773726    H 
atom    23.173292     6.027251     1.108499    C 
atom    22.194490     5.046687     1.279767    C 
atom    22.564251     3.707180     1.413232    C 
atom    23.912813     3.348236     1.375428    C 
atom    24.891613     4.328799     1.204160    C 
atom    24.521852     5.668306     1.070695    C 
atom    22.886433     7.066424     1.004958    H 
atom    21.148096     5.325614     1.309053    H 
atom    21.804976     2.945973     1.546154    H 
atom    24.199667     2.309062     1.478969    H 
atom    25.938011     4.049872     1.174874    H 
atom    25.281130     6.429513     0.937773    H 
#######  END  STRUCTURE #######
