lattice_vector    57.125835     0.000000     0.000000 
lattice_vector     0.000000     9.033905     0.000000 
lattice_vector     3.353654     0.000000     3.083435 
atom     7.767389     2.450031     1.171288    S 
atom     8.931770     0.916124    -0.720078    C 
atom     7.848680    -0.366677     1.418963    C 
atom     8.435064    -0.727871    -0.095091    S 
atom     7.311493     0.844972     1.839757    C 
atom     8.650543     2.165554    -0.190096    C 
atom     9.469299     3.293285    -0.637700    C 
atom     9.374978     0.699851    -2.029019    C 
atom     9.115321     4.534644    -1.126261    N 
atom     9.889362     0.330295    -3.007517    N 
atom     7.058168     0.760332     3.248893    C 
atom     6.879804     1.883016     4.053878    C 
atom     6.679935     2.887350     4.607522    N 
atom     8.068259    -1.313671     2.371176    N 
atom     7.471780    -0.826521     3.787536    S 
atom    52.712101     2.450031     1.912148    S 
atom    51.547722     0.916124     3.803513    C 
atom    52.630802    -0.366677     1.664472    C 
atom    52.044422    -0.727871     3.178527    S 
atom    53.167992     0.844972     1.243678    C 
atom    51.828941     2.165554     3.273531    C 
atom    51.010185     3.293285     3.721135    C 
atom    51.104507     0.699851     5.112454    C 
atom    51.364162     4.534644     4.209696    N 
atom    50.590126     0.330295     6.090952    N 
atom    53.421314     0.760332    -0.165458    C 
atom    53.599682     1.883016    -0.970443    C 
atom    53.799557     2.887350    -1.524086    N 
atom    52.411221    -1.313671     0.712259    N 
atom    53.007706    -0.826521    -0.704101    S 
atom    36.330299     6.966984     1.171288    S 
atom    37.494686     5.433076    -0.720078    C 
atom    36.411598     4.150276     1.418963    C 
atom    36.997982     3.789081    -0.095091    S 
atom    35.874405     5.361925     1.839757    C 
atom    37.213470     6.682506    -0.190096    C 
atom    38.032219     7.810238    -0.637700    C 
atom    37.937889     5.216805    -2.029019    C 
atom    37.678242     9.051597    -1.126261    N 
atom    38.452267     4.847248    -3.007517    N 
atom    35.621078     5.277285     3.248893    C 
atom    35.442722     6.399969     4.053878    C 
atom    35.242844     7.404302     4.607522    N 
atom    36.631172     3.203281     2.371176    N 
atom    36.034698     3.690431     3.787536    S 
atom    24.149178     6.966984     1.912148    S 
atom    22.984795     5.433076     3.803513    C 
atom    24.067892     4.150276     1.664472    C 
atom    23.481504     3.789081     3.178527    S 
atom    24.605078     5.361925     1.243678    C 
atom    23.266026     6.682506     3.273531    C 
atom    22.447273     7.810238     3.721135    C 
atom    22.541592     5.216805     5.112454    C 
atom    22.801247     9.051597     4.209696    N 
atom    22.027208     4.847248     6.090952    N 
atom    24.858400     5.277285    -0.165458    C 
atom    25.036764     6.399969    -0.970443    C 
atom    25.236633     7.404302    -1.524086    N 
atom    23.848310     3.203281     0.712259    N 
atom    24.444786     3.690431    -0.704101    S 
