lattice_vector     7.449244     0.000000     0.000000 
lattice_vector    -3.724623     6.451235     0.000000 
lattice_vector     0.000000     0.000000    28.978334 
atom     2.328606     2.150412     0.000000    C 
atom     3.026614     3.359397     0.000000    C 
atom     4.422630     3.359397     0.000000    C 
atom     5.120638     2.150412     0.000000    C 
atom     4.422631     0.941426     0.000000    C 
atom     3.026614     0.941426     0.000000    C 
atom     1.245384     2.150411     0.000000    H 
atom     2.485003     4.297494     0.000000    H 
atom     4.964241     4.297494     0.000000    H 
atom     6.203860     2.150411     0.000000    H 
atom     4.964241     0.003329     0.000000    H 
atom     2.485003     0.003329     0.000000    H 
