lattice_vector    22.541500     0.000000     0.000000 
lattice_vector     0.830905     4.597420     0.000000 
lattice_vector    -5.511028    -1.506675     5.290672 
atom     5.078802     2.795084     0.440035    S 
atom     6.585032     3.936086     2.367106    C 
atom     4.636119     2.220512     3.175007    C 
atom     5.970823     2.989426     3.803935    S 
atom     4.415649     1.887520     1.842698    C 
atom     6.206692     3.835653     1.037514    C 
atom     6.548870     4.947024     0.147944    C 
atom     7.758195     4.560353     2.804744    C 
atom     7.179497     4.966435    -1.079615    N 
atom     8.583650     5.157656     3.370847    N 
atom     3.085862     1.361670     1.725222    C 
atom     2.409585     1.280916     0.510166    C 
atom     1.975454     1.201314    -0.567029    N 
atom     3.600031     2.048664     4.039490    N 
atom     2.371595     1.315724     3.295899    S 
atom    12.782576     0.295661     4.850636    S 
atom    11.276344    -0.845341     2.923565    C 
atom    13.225256     0.870233     2.115665    C 
atom    11.890553     0.101319     1.486737    S 
atom    13.445728     1.203225     3.447973    C 
atom    11.654684    -0.744907     4.253158    C 
atom    11.312508    -1.856279     5.142728    C 
atom    10.103182    -1.469608     2.485928    C 
atom    10.681881    -1.875690     6.370287    N 
atom     9.277727    -2.066911     1.919824    N 
atom    14.775514     1.729075     3.565449    C 
atom    15.451790     1.809829     4.780506    C 
atom    15.885924     1.889432     5.857701    N 
atom    14.261346     1.042081     1.251182    N 
atom    15.489782     1.775021     1.994772    S 
