lattice_vector    17.472853     0.000000     0.000000 
lattice_vector   -15.657611    10.725409     0.000000 
lattice_vector    -2.400764     0.258538     2.721818 
atom   -12.818771    11.009036     0.644099    S 
atom   -12.116978    12.014128     3.048639    C 
atom   -12.292974     9.308385     2.843346    C 
atom   -11.701282    10.450851     3.898144    S 
atom   -12.470589     9.451702     1.471376    C 
atom   -12.562236    12.202453     1.749668    C 
atom   -13.190621    13.484539     1.426014    C 
atom   -11.583310    13.028623     3.850729    C 
atom   -12.952489    14.379752     0.402856    N 
atom   -11.265930    13.746877     4.712126    N 
atom   -13.128121     8.275851     0.978042    C 
atom   -13.785889     8.236232    -0.249151    C 
atom   -14.241852     8.305453    -1.318011    N 
atom   -12.793871     8.183620     3.421797    N 
atom   -13.350748     7.178097     2.291314    S 
atom    12.233251    -0.025090     2.077719    S 
atom    11.531456    -1.030181    -0.326821    C 
atom    11.707454     1.675561    -0.121527    C 
atom    11.115760     0.533095    -1.176326    S 
atom    11.885067     1.532245     1.250442    C 
atom    11.976713    -1.218505     0.972150    C 
atom    12.605100    -2.500592     1.295804    C 
atom    10.997787    -2.044676    -1.128911    C 
atom    12.366968    -3.395806     2.318962    N 
atom    10.680409    -2.762930    -1.990308    N 
atom    12.542600     2.708096     1.743776    C 
atom    13.200367     2.747715     2.970970    C 
atom    13.656330     2.678494     4.039829    N 
atom    12.208350     2.800327    -0.699978    N 
atom    12.765225     3.805850     0.430504    S 
