lattice_vector    14.797585     0.000000     0.000000 
lattice_vector    -0.233869     3.427915     0.000000 
lattice_vector     1.331974    -0.191689    11.266014 
atom    14.892303     1.713949    -0.309377  C  
atom    14.378475     1.803116     1.000177  C  
atom    15.972216     1.624626    -0.447823  H  
atom    14.062522     1.738070    -1.430444  C  
atom    12.940250     1.923307     1.183380  C  
atom    15.209541     1.780769     2.138432  C  
atom    12.626090     1.857191    -1.247441  C  
atom    14.575713     1.650217    -2.762858  C  
atom    12.109183     1.945654     0.045125  C  
atom    12.426420     2.012474     2.492934  C  
atom    14.692639     1.869233     3.430988  C  
atom    16.289595     1.691197     2.001231  H  
atom    11.790133     1.881898    -2.407991  C  
atom    13.736856     1.677782    -3.846409  C  
atom    15.654961     1.561081    -2.898325  H  
atom    11.029130     2.035225     0.182325  H  
atom    11.346514     2.101798     2.631379  H  
atom    13.256203     1.988353     3.614001  C  
atom    15.528593     1.844525     4.591548  C  
atom    10.711564     1.973684    -2.269027  H  
atom    12.325811     1.795403    -3.666631  C  
atom    14.144438     1.611103    -4.855353  H  
atom    12.743012     2.076206     4.946416  C  
atom    14.992914     1.931020     5.850188  C  
atom    16.607157     1.752730     4.452582  H  
atom    11.674894     1.819347    -4.540857  H  
atom    11.663765     2.165342     5.081881  H  
atom    13.581870     2.048640     6.029965  C  
atom    15.643833     1.907077     6.724404  H  
atom    13.174286     2.115319     7.038908  H  
atom     1.003386     1.522278    11.575392  C  
atom     1.517214     1.433111    10.265837  C  
atom    -0.076525     1.611600    11.713837  H  
atom     1.833167     1.498156    12.696458  C  
atom     2.955439     1.312919    10.082634  C  
atom     0.686148     1.455457     9.127582  C  
atom     3.269600     1.379036    12.513454  C  
atom     1.319976     1.586009    14.028872  C  
atom     3.786505     1.290573    11.220889  C  
atom     3.469268     1.223753     8.773080  C  
atom     1.203050     1.366993     7.835026  C  
atom    -0.393905     1.545029     9.264783  H  
atom     4.105556     1.354328    13.674006  C  
atom     2.158834     1.558444    15.112422  C  
atom     0.240729     1.675145    14.164339  H  
atom     4.866559     1.201001    11.083690  H  
atom     4.549176     1.134429     8.634636  H  
atom     2.639486     1.247873     7.652013  C  
atom     0.367097     1.391701     6.674466  C  
atom     5.184125     1.262542    13.535041  H  
atom     3.569878     1.440824    14.932645  C  
atom     1.751252     1.625123    16.121367  H  
atom     3.152676     1.160020     6.319599  C  
atom     0.902775     1.305206     5.415826  C  
atom    -0.711468     1.483497     6.813433  H  
atom     4.220796     1.416879    15.806871  H  
atom     4.231925     1.070885     6.184133  H  
atom     2.313819     1.187586     5.236049  C  
atom     0.251856     1.329149     4.541610  H  
atom     2.721403     1.120907     4.227106  H
