lattice_vector 6.0788820000000001 0.0000000000000000 0.0000000000000000 
lattice_vector 0.0000000000000000 6.0788820000000001 0.0000000000000000 
lattice_vector 0.0000000000000000 0.0000000000000000 13.9832689999999999 
atom 2.4729340000000000 4.0032439999999996 12.7475749999999994 C
atom 2.1781090000000001 5.2302850000000003 13.3463480000000008 C
atom 1.5075820000000000 2.9940959999999999 12.7106539999999999 C
atom 0.9178830000000000 5.4480320000000004 13.9083740000000002 C
atom 0.2474020000000000 3.2120050000000000 13.2726900000000008 C
atom -0.0472830000000000 4.4391220000000002 13.8714420000000000 C
atom 3.4564010000000001 3.8326180000000001 12.3087079999999993 H
atom 2.9312740000000002 6.0182169999999999 13.3754980000000003 H
atom 1.7377899999999999 2.0362950000000000 12.2431859999999997 H
atom 0.6876440000000000 6.4057329999999997 14.3760089999999998 H
atom -0.5057779999999999 2.4241130000000002 13.2436699999999998 H
atom -1.0305880000000001 4.6102879999999997 14.3105270000000004 H
atom 2.0756380000000001 2.4729340000000000 2.2601230000000001 C
atom 0.8485970000000000 2.1781090000000001 2.8588979999999999 C
atom 3.0847859999999998 1.5075820000000000 2.2232050000000001 C
atom 0.6308500000000000 0.9178830000000000 3.4209230000000002 C
atom 2.8668779999999998 0.2474020000000000 2.7852389999999998 C
atom 1.6397600000000001 -0.0472830000000000 3.3839920000000001 C
atom 2.2462640000000000 3.4564010000000001 1.8212550000000001 H
atom 0.0606660000000000 2.9312740000000002 2.8880460000000001 H
atom 4.0425870000000002 1.7377899999999999 1.7557350000000000 H
atom -0.3268500000000000 0.6876440000000000 3.8885600000000000 H
atom 3.6547700000000001 -0.5057779999999999 2.7562199999999999 H
atom 1.4685950000000001 -1.0305880000000001 3.8230770000000001 H
atom 3.6059480000000002 2.0756380000000001 5.7559389999999997 C
atom 3.9007730000000000 0.8485970000000000 6.3547130000000003 C
atom 4.5713010000000001 3.0847859999999998 5.7190200000000004 C
atom 5.1609990000000003 0.6308500000000000 6.9167399999999999 C
atom 5.8314810000000001 2.8668779999999998 6.2810560000000004 C
atom 6.1261650000000003 1.6397600000000001 6.8798089999999998 C
atom 2.6224810000000001 2.2462640000000000 5.3170719999999996 H
atom 3.1476090000000001 0.0606660000000000 6.3838619999999997 H
atom 4.3410919999999997 4.0425870000000002 5.2515530000000004 H
atom 5.3912389999999997 -0.3268500000000000 7.3843769999999997 H
atom 6.5846609999999997 3.6547700000000001 6.2520350000000002 H
atom 7.1094700000000000 1.4685950000000001 7.3188940000000002 H
atom 4.0032439999999996 3.6059480000000002 9.2517580000000006 C
atom 5.2302850000000003 3.9007730000000000 9.8505299999999991 C
atom 2.9940959999999999 4.5713010000000001 9.2148369999999993 C
atom 5.4480320000000004 5.1609990000000003 10.4125569999999996 C
atom 3.2120050000000000 5.8314810000000001 9.7768730000000001 C
atom 4.4391220000000002 6.1261650000000003 10.3756260000000005 C
atom 3.8326180000000001 2.6224810000000001 8.8128899999999994 H
atom 6.0182169999999999 3.1476090000000001 9.8796789999999994 H
atom 2.0362950000000000 4.3410919999999997 8.7473700000000001 H
atom 6.4057329999999997 5.3912389999999997 10.8801939999999995 H
atom 2.4241130000000002 6.5846609999999997 9.7478510000000007 H
atom 4.6102879999999997 7.1094700000000000 10.8147110000000009 H
