lattice_vector 7.2931121900000004 -0.0001383500000000 -0.0140375500000000 
lattice_vector -0.0003522300000000 13.3947894400000003 0.0001989400000000 
lattice_vector -1.44 0.0004793500000000 12.4627295999999994 
atom 7.4045721900000014 13.1626116500000006 1.9009624500000000 N
atom 7.6311021900000009 12.6181316500000005 2.7424824499999998 H
atom 7.9317021900000011 12.9894416499999998 1.0247124500000000 H
atom 6.1399121900000022 13.6108416499999993 1.7767524500000000 C
atom 5.7663321900000000 14.1505316499999996 0.5877324500000001 N
atom 5.3133821900000022 13.5002316499999981 2.8528524500000003 N
atom 4.5274821900000015 14.6503416500000032 0.5240524499999999 C
atom 4.0595021900000008 13.9774316499999980 2.7560324499999997 C
atom 4.2359321900000015 15.0857416500000010 -0.4346175500000000 H
atom 3.6303521900000004 14.6126416500000005 1.5867324500000002 C
atom 3.1404121900000015 13.7519016499999989 3.9157324500000001 C
atom 2.6258521900000020 15.0177316499999982 1.4960424500000002 H
atom 2.6139421900000008 12.7924416499999989 3.7990124500000002 H
atom 2.3750721900000014 14.5328216499999989 3.9600024500000002 H
atom 3.6899621900000010 13.7171516499999981 4.8625524499999999 H
atom 7.0765821900000017 11.0486716499999993 6.6203524500000004 C
atom 8.2621721900000011 10.4172316499999980 7.0765424499999998 C
atom 8.2534321900000016 9.8861616500000018 8.3758724500000010 C
atom 9.1761221900000010 9.4554016499999971 8.7642924500000010 H
atom 7.1169221900000013 9.9036116500000002 9.1837524500000001 C
atom 7.1636821900000012 9.4746316499999992 10.1844324500000010 H
atom 6.9580021900000011 11.6901116500000004 5.2726924500000010 C
atom 7.8113821900000016 11.5744116500000001 4.3767324499999996 O
atom 9.5288921900000005 10.2777316500000016 6.2729624499999996 C
atom 10.3436021900000021 9.9244316499999989 6.9166524500000008 H
atom 9.8257321900000001 11.2152816499999997 5.7888624499999999 H
atom 9.4134521900000010 9.5365916500000001 5.4688824499999997 H
atom 5.9405321900000017 11.0762116499999994 7.4511324500000002 C
atom 5.9400021900000022 10.4857116499999972 8.7105124500000013 C
atom 5.8376721900000010 12.3803916500000000 5.1256924499999998 O
atom 5.0490621900000008 11.5697316499999996 7.0710824499999996 H
atom 5.0385221900000019 10.4849316500000000 9.3242824500000001 H
atom 5.7363621900000012 12.8254316500000005 4.1605424499999994 H
atom 2.8149131830949048 6.4654179206441764 4.3166563148508059 N
atom 2.5884118203070372 5.9208668140868497 3.4751201405130678 H
atom 2.2877922877629771 6.2923507695053571 5.1929011725214584 H
atom 4.0795496106879021 6.9136119288074136 4.4408796285794754 C
atom 4.4531012246729000 7.4534003775238009 5.6299156610407213 N
atom 4.9060854313984787 6.8028688567540172 3.3647763410339451 N
atom 5.6919249396908276 7.9531696305514714 5.6936105068356095 C
atom 6.1599403354560414 7.2800306792702267 3.4616105152575734 C
atom 5.9834520389970578 8.3886493712908141 6.6522934411796992 H
atom 6.5890569259486576 7.9153351633195053 4.6309293849943902 C
atom 7.0790422003498472 7.0543561984896668 2.3019038139488432 C
atom 7.5935356221896386 8.3203958214125979 4.7216314173874814 H
atom 7.6055626605907847 6.0948873666334311 2.4185953139337051 H
atom 7.8443411310033158 7.8352431122686408 2.2576570099735975 H
atom 6.5294940297362301 7.0195373219242390 1.3550827807088386 H
atom 3.1430143716953451 4.3510187927219226 -0.4027964846272952 C
atom 1.9574575804044234 3.7195803733029611 -0.8590052409529457 C
atom 1.9662255137297702 3.1883870471065849 -2.1583510177344376 C
atom 1.0435581683501265 2.7576251167935668 -2.5467838130959159 H
atom 3.1027345991371451 3.2057176610018363 -2.9662305011712338 C
atom 3.0559971625373015 2.7766447008908304 -3.9669232450114156 H
atom 3.2615606337868952 4.9925818868021770 0.9448825705909055 C
atom 2.4081867156144421 4.8769989200073152 1.8408391355661440 O
atom 0.6907449137433184 3.5802042685069941 -0.0554293828330802 C
atom -0.1239465046771585 3.2268740973770047 -0.6991298777353617 H
atom 0.3938556045275597 4.5178113037876102 0.4286984670814158 H
atom 0.8062238899596200 2.8391360224039479 0.7486286033450678 H
atom 4.2790629265050546 4.3784372562898950 -1.2335756683817845 C
atom 4.2796239852708453 3.7878180216192634 -2.4929732104164399 C
atom 4.3818543312639520 5.6828335024234695 1.0919030743069851 O
atom 5.1705069711948317 4.8719595732427035 -0.8535110087860200 H
atom 5.1811040287155272 3.7869458841686892 -3.1067432349540574 H
atom 4.4831409233773982 6.1279610396108586 2.0570662951142733 H
atom 5.7419664100000007 0.2325187900000000 10.5479285399999991 N
atom 5.5154364100000004 0.7769987899999993 9.7064085400000000 H
atom 5.2148364100000011 0.4056887900000002 11.4241785399999998 H
atom 7.0066264100000009 -0.2157112099999997 10.6721385400000006 C
atom 7.3802064100000004 -0.7554012099999993 11.8611585399999999 N
atom 7.8331564100000000 -0.1051012099999983 9.5960385400000003 N
atom 8.6190564099999989 -1.2552112100000019 11.9248385399999997 C
atom 9.0870364099999996 -0.5823012099999993 9.6928585399999996 C
atom 8.9106064099999998 -1.6906112100000013 12.8835085399999993 H
atom 9.5161864100000013 -1.2175112100000005 10.8621585399999994 C
atom 10.0061264099999985 -0.3567712099999995 8.5331585399999987 C
atom 10.5206864099999979 -1.6226012099999987 10.9528485399999980 H
atom 10.5325964100000000 0.6026887900000021 8.6498785399999996 H
atom 10.7714664100000004 -1.1376912099999994 8.4888885399999996 H
atom 9.4565764100000003 -0.3220212099999992 7.5863385399999999 H
atom 6.0699564099999996 2.3464587900000011 5.8285385399999994 C
atom 4.8843664100000002 2.9778987900000016 5.3723485399999991 C
atom 4.8931064100000006 3.5089687899999995 4.0730185399999987 C
atom 3.9704164099999999 3.9397287900000015 3.6845985399999992 H
atom 6.0296164100000000 3.4915187900000006 3.2651385399999997 C
atom 5.9828564100000001 3.9204987900000008 2.2644585399999992 H
atom 6.1885364100000002 1.7050187899999987 7.1761985399999979 C
atom 5.3351564099999997 1.8207187900000008 8.0721585399999984 O
atom 3.6176464100000003 3.1173987899999989 6.1759285399999992 C
atom 2.8029364100000005 3.4706987900000019 5.5322385399999989 H
atom 3.3208064100000008 2.1798487899999994 6.6600285399999999 H
atom 3.7330864100000003 3.8585387900000012 6.9800085399999992 H
atom 7.2060064099999996 2.3189187900000001 4.9977585399999995 C
atom 7.2065364099999991 2.9094187900000024 3.7383785399999985 C
atom 7.3088664099999994 1.0147387900000007 7.3231985399999990 O
atom 8.0974764100000005 1.8253987899999995 5.3778085400000002 H
atom 8.1080164099999994 2.9101987900000013 3.1246085399999992 H
atom 7.4101764100000000 0.5696987899999992 8.2883485399999994 H
atom 10.3316254169050961 6.9297125193558236 8.1322346751491938 N
atom 10.5581267796929641 7.4742636259131503 8.9737708494869324 H
atom 10.8587463122370238 7.1027796704946438 7.2559898174785413 H
atom 9.0669889893120992 6.4815185111925864 8.0080113614205235 C
atom 8.6934373753271004 5.9417300624761999 6.8189753289592785 N
atom 8.2404531686015225 6.5922615832459828 9.0841146489660538 N
atom 7.4546136603091737 5.4419608094485286 6.7552804831643911 C
atom 6.9865982645439590 6.1150997607297741 8.9872804747424269 C
atom 7.1630865610029435 5.0064810687091859 5.7965975488203005 H
atom 6.5574816740513437 5.4797952766804956 7.8179616050056087 C
atom 6.0674963996501532 6.3407742415103341 10.1469871760511570 C
atom 5.5530029778103618 5.0747346185874020 7.7272595726125184 H
atom 5.5409759394092157 7.3002430733665689 10.0302956760662934 H
atom 5.3021974689966855 5.5598873277313592 10.1912339800264018 H
atom 6.6170445702637712 6.3755931180757610 11.0938082092911614 H
atom 10.0035242283046557 9.0441116472780774 12.8516874746272940 C
atom 11.1890810195955765 9.6755500666970384 13.3078962309529434 C
atom 11.1803130862702300 10.2067433928934168 14.6072420077344365 C
atom 12.1029804316498737 10.6375053232064349 14.9956748030959144 H
atom 10.0438040008628562 10.1894127789981610 15.4151214911712326 C
atom 10.0905414374626989 10.6184857391091700 16.4158142350114140 H
atom 9.8849779662131070 8.4025485531978212 11.5040084194090948 C
atom 10.7383518843855601 8.5181315199926857 10.6080518544338567 O
atom 12.4557936862566834 9.8149261714930027 12.5043203728330816 C
atom 13.2704851046771601 10.1682563426229979 13.1480208677353616 H
atom 12.7526829954724406 8.8773191362123942 12.0201925229185829 H
atom 12.3403147100403814 10.5559944175960503 11.7002623866549325 H
atom 8.8674756734949458 9.0166931837101032 13.6824666583817844 C
atom 8.8669146147291560 9.6073124183807366 14.9418642004164397 C
atom 8.7646842687360493 7.7122969375765305 11.3569879156930149 O
atom 7.9760316288051687 8.5231708667572939 13.3024019987860189 H
atom 7.9654345712844732 9.6081845558313095 15.5556342249540567 H
atom 8.6633976766226031 7.2671694003891423 10.3918246948857256 H
