#Z = 2 
#napm = 30 
lattice_vector     6.189657     0.000000     0.000000 
lattice_vector     0.000000     8.913612     0.000000 
lattice_vector     4.309157     0.000000    11.330876 
atom     5.518415     2.775839     7.262477  C  
atom     6.452106     3.757046     6.872150  C  
atom     5.328283     1.932632     6.594495  H  
atom     4.831218     2.852222     8.474018  C  
atom     6.703640     4.880233     7.761917  C  
atom     7.149988     3.688479     5.649427  C  
atom     5.083097     3.973480     9.363043  C  
atom     3.880608     1.862064     8.876931  C  
atom     6.005758     4.948802     8.984640  C  
atom     7.637331     5.861440     7.371590  C  
atom     8.072639     4.663795     5.271029  C  
atom     6.960884     2.845579     4.980752  H  
atom     4.368577     4.036834    10.600681  C  
atom     3.218732     1.963269    10.072840  C  
atom     3.692538     1.020736     8.207699  H  
atom     6.194861     5.791699     9.653315  H  
atom     7.827461     6.704647     8.039573  H  
atom     8.324528     5.785058     6.160048  C  
atom     8.787169     4.600445     4.033386  C  
atom     4.557170     4.880819    11.266396  H  
atom     3.465744     3.065068    10.945895  C  
atom     2.496289     1.200586    10.364265  H  
atom     9.275137     6.775216     5.757135  C  
atom     9.690001     5.572211     3.688173  C  
atom     8.598581     3.756458     3.367682  H  
atom     2.926836     3.130249    11.891338  H  
atom     9.463207     7.616543     6.426369  H  
atom     9.937015     6.674011     4.561228  C  
atom    10.228901     5.507026     2.742731  H  
atom    10.659457     7.436693     4.269803  H  
atom     5.518415     6.137773     7.262477  C  
atom     6.452106     5.156567     6.872150  C  
atom     5.328283     6.980980     6.594495  H  
atom     4.831218     6.061391     8.474018  C  
atom     6.703640     4.033379     7.761917  C  
atom     7.149988     5.225133     5.649427  C  
atom     5.083097     4.940133     9.363043  C  
atom     3.880608     7.051548     8.876931  C  
atom     6.005758     3.964811     8.984640  C  
atom     7.637331     3.052172     7.371590  C  
atom     8.072639     4.249818     5.271029  C  
atom     6.960884     6.068033     4.980752  H  
atom     4.368577     4.876778    10.600681  C  
atom     3.218732     6.950344    10.072840  C  
atom     3.692538     7.892877     8.207699  H  
atom     6.194861     3.121913     9.653315  H  
atom     7.827461     2.208965     8.039573  H  
atom     8.324528     3.128554     6.160048  C  
atom     8.787169     4.313167     4.033386  C  
atom     4.557170     4.032794    11.266396  H  
atom     3.465744     5.848545    10.945895  C  
atom     2.496289     7.713027    10.364265  H  
atom     9.275137     2.138397     5.757135  C  
atom     9.690001     3.341402     3.688173  C  
atom     8.598581     5.157155     3.367682  H  
atom     2.926836     5.783364    11.891338  H  
atom     9.463207     1.297069     6.426369  H  
atom     9.937015     2.239601     4.561228  C  
atom    10.228901     3.406587     2.742731  H  
atom    10.659457     1.476919     4.269803  H  
