lattice_vector    17.573282     0.000000     0.000000 
lattice_vector     0.000000    10.122925     0.000000 
lattice_vector     0.447138     0.000000    10.721413 
atom     2.073650     7.990934     7.926730  H  
atom    -0.946893     5.240095     5.039375  H  
atom     0.355731     6.268938     4.010714  N  
atom     1.233961     7.280957     4.151032  C  
atom     1.487110     7.918776     5.315782  N  
atom     0.808746     7.531778     6.400526  C  
atom    -0.145078     6.536669     6.321605  C  
atom    -0.654215     6.284582     7.069888  H  
atom    -0.315687     5.933582     5.103821  C  
atom     1.156311     8.200525     7.690582  C  
atom     0.562705     7.883412     8.389001  H  
atom     1.058335     9.161118     7.593971  H  
atom     1.900707     7.682154     3.066145  N  
atom     2.553439     8.319313     3.169093  H  
atom     1.898072     7.168722     2.366242  H  
atom    14.388416     7.447194     3.777568  C  
atom    13.713459     7.279029     2.561576  C  
atom    12.719037     6.301996     2.508217  C  
atom    12.269797     6.154560     1.695738  H  
atom    12.375359     5.549654     3.602486  C  
atom    11.692861     4.906814     3.534222  H  
atom    13.023671     5.731970     4.794870  C  
atom    12.783617     5.226503     5.550179  H  
atom    14.035538     6.668138     4.873102  C  
atom    14.495071     6.780901     5.685466  H  
atom    13.410916     7.780751     0.618356  H  
atom    15.474522     8.452353     3.955344  C  
atom    16.074696     8.361623     5.117140  O  
atom    16.775791     9.033358     5.238975  H  
atom    15.770572     9.290676     3.126481  O  
atom    13.997524     8.072312     1.334697  C  
atom    14.921676     7.938986     1.070071  H  
atom    13.845381     9.012980     1.515129  H  
atom     1.850081     2.131991     2.566024  H  
atom    -1.170462     4.882830    -0.321331  H  
atom     0.132162     3.853987    -1.349993  N  
atom     1.010392     2.841968    -1.209674  C  
atom     1.263541     2.204149    -0.044925  N  
atom     0.585177     2.591146     1.039820  C  
atom    -0.368647     3.586256     0.960899  C  
atom    -0.877784     3.838343     1.709182  H  
atom    -0.539256     4.189343    -0.256886  C  
atom     0.932742     1.922400     2.329875  C  
atom     0.339136     2.239512     3.028295  H  
atom     0.834766     0.961807     2.233265  H  
atom     1.677138     2.440771    -2.294561  N  
atom     2.329870     1.803612    -2.191613  H  
atom     1.674503     2.954203    -2.994465  H  
atom    14.611985     2.675731     9.138274  C  
atom    13.937029     2.843895     7.922283  C  
atom    12.942606     3.820929     7.868924  C  
atom    12.493367     3.968365     7.056444  H  
atom    12.598928     4.573271     8.963192  C  
atom    11.916430     5.216111     8.894929  H  
atom    13.247240     4.390954    10.155577  C  
atom    13.007186     4.896422    10.910885  H  
atom    14.259107     3.454787    10.233808  C  
atom    14.718641     3.342023    11.046173  H  
atom    13.634486     2.342174     5.979063  H  
atom    15.698092     1.670571     9.316051  C  
atom    16.298265     1.761302    10.477847  O  
atom    16.999359     1.089567    10.599681  H  
atom    15.994141     0.832249     8.487187  O  
atom    14.221093     2.050612     6.695403  C  
atom    15.145246     2.183939     6.430778  H  
atom    14.068950     1.109945     6.875836  H  
atom    10.860291     2.929472     7.926730  H  
atom     7.839748     0.178633     5.039375  H  
atom     9.142373     1.207476     4.010714  N  
atom    10.020601     2.219494     4.151032  C  
atom    10.273752     2.857313     5.315782  N  
atom     9.595387     2.470317     6.400526  C  
atom     8.641563     1.475206     6.321605  C  
atom     8.132426     1.223120     7.069888  H  
atom     8.470954     0.872120     5.103821  C  
atom     9.942952     3.139062     7.690582  C  
atom     9.349347     2.821951     8.389001  H  
atom     9.844976     4.099655     7.593971  H  
atom    10.687348     2.620691     3.066145  N  
atom    11.340081     3.257852     3.169093  H  
atom    10.684713     2.107260     2.366242  H  
atom     5.601774     2.385731     3.777568  C  
atom     4.926819     2.217567     2.561576  C  
atom     3.932394     1.240533     2.508217  C  
atom     3.483156     1.093098     1.695738  H  
atom     3.588717     0.488192     3.602486  C  
atom     2.906219    -0.154648     3.534222  H  
atom     4.237028     0.670507     4.794870  C  
atom     3.996977     0.165041     5.550179  H  
atom     5.248898     1.606676     4.873102  C  
atom     5.708431     1.719440     5.685466  H  
atom     4.624275     2.719288     0.618356  H  
atom     6.687881     3.390890     3.955344  C  
atom     7.288055     3.300160     5.117140  O  
atom     7.989149     3.971895     5.238975  H  
atom     6.983931     4.229213     3.126481  O  
atom     5.210882     3.010850     1.334697  C  
atom     6.135035     2.877523     1.070071  H  
atom     5.058741     3.951516     1.515129  H  
atom    10.636723     7.193453     2.566024  H  
atom     7.616179     9.944292    -0.321331  H  
atom     8.918804     8.915449    -1.349993  N  
atom     9.797032     7.903430    -1.209674  C  
atom    10.050183     7.265612    -0.044925  N  
atom     9.371819     7.652609     1.039820  C  
atom     8.417995     8.647718     0.960899  C  
atom     7.908857     8.899805     1.709182  H  
atom     8.247386     9.250805    -0.256886  C  
atom     9.719383     6.983862     2.329875  C  
atom     9.125778     7.300975     3.028295  H  
atom     9.621408     6.023270     2.233265  H  
atom    10.463779     7.502233    -2.294561  N  
atom    11.116512     6.865074    -2.191613  H  
atom    10.461144     8.015666    -2.994465  H  
atom     5.825344     7.737193     9.138274  C  
atom     5.150389     7.905357     7.922283  C  
atom     4.155964     8.882391     7.868924  C  
atom     3.706726     9.029827     7.056444  H  
atom     3.812286     9.634733     8.963192  C  
atom     3.129787    10.277573     8.894929  H  
atom     4.460598     9.452417    10.155577  C  
atom     4.220545     9.957884    10.910885  H  
atom     5.472466     8.516249    10.233808  C  
atom     5.931999     8.403486    11.046173  H  
atom     4.847843     7.403636     5.979063  H  
atom     6.911449     6.732034     9.316051  C  
atom     7.511625     6.822764    10.477847  O  
atom     8.212717     6.151029    10.599681  H  
atom     7.207500     5.893712     8.487187  O  
atom     5.434450     7.112075     6.695403  C  
atom     6.358603     7.245401     6.430778  H  
atom     5.282310     6.171408     6.875836  H 
