#Z = 2 
#napm = 30 
lattice_vector    10.554057     0.000000     0.000000 
lattice_vector     0.001020     7.904701     0.000000 
lattice_vector     0.264440    -1.131550     7.323349 
atom     3.267540     5.077812     6.362842  C  
atom     3.402927     6.289962     5.656257  C  
atom     4.115096     4.389487     6.397584  H  
atom     2.084084     4.733031     7.015886  C  
atom     2.273159     7.205357     5.609562  C  
atom     4.594442     6.645803     4.992585  C  
atom     0.956083     5.647655     6.970014  C  
atom     1.937458     3.504169     7.733386  C  
atom     1.081643     6.849517     6.273234  C  
atom     2.408546     8.417507     4.902977  C  
atom     4.720000     7.847656     4.295808  C  
atom     5.442767     5.958390     5.026872  H  
atom    -0.250261     5.277564     7.643865  C  
atom     0.762123     3.190531     8.364844  C  
atom     2.785740     2.818315     7.766481  H  
atom     0.233319     7.536927     6.238948  H  
atom     1.560990     9.105831     4.868236  H  
atom     3.592002     8.762288     4.249933  C  
atom     5.926347     8.217755     3.621954  C  
atom    -1.097427     5.964565     7.606629  H  
atom    -0.346165     4.088765     8.319267  C  
atom     0.666545     2.249132     8.906296  H  
atom     3.738628     9.991148     3.532433  C  
atom     6.022250     9.406554     2.946553  C  
atom     6.773512     7.530757     3.659200  H  
atom    -1.274094     3.820173     8.824582  H  
atom     2.890345    10.677003     3.499339  H  
atom     4.913962    10.304787     2.900975  C  
atom     6.950177     9.675136     2.441242  H  
atom     5.009540    11.246186     2.359524  H  
atom     7.551978     1.695339     0.960507  C  
atom     7.416590     0.483189     1.667092  C  
atom     6.704422     2.383665     0.925765  H  
atom     8.735435     2.040120     0.307463  C  
atom     8.546358    -0.432205     1.713786  C  
atom     6.225076     0.127348     2.330765  C  
atom     9.863435     1.125497     0.353335  C  
atom     8.882060     3.268982    -0.410037  C  
atom     9.737876    -0.076365     1.050115  C  
atom     8.410971    -1.644356     2.420372  C  
atom     6.099517    -1.074505     3.027540  C  
atom     5.376751     0.814761     2.296477  H  
atom    11.069778     1.495588    -0.320516  C  
atom    10.057394     3.582620    -1.041495  C  
atom     8.033777     3.954836    -0.443132  H  
atom    10.586198    -0.763776     1.084401  H  
atom     9.258529    -2.332680     2.455114  H  
atom     7.227515    -1.989136     3.073416  C  
atom     4.893171    -1.444604     3.701395  C  
atom    11.916946     0.808586    -0.283280  H  
atom    11.165681     2.684387    -0.995918  C  
atom    10.152973     4.524019    -1.582947  H  
atom     7.080890    -3.217997     3.790916  C  
atom     4.797267    -2.633403     4.376796  C  
atom     4.046005    -0.757606     3.664149  H  
atom    12.093611     2.952978    -1.501233  H  
atom     7.929172    -3.903852     3.824010  H  
atom     5.905556    -3.531636     4.422374  C  
atom     3.869341    -2.901985     4.882107  H  
atom     5.809977    -4.473035     4.963825  H 
