#Z = 2 
#napm = 30 
lattice_vector     9.451241     0.000000     0.000000 
lattice_vector     0.000000     8.253253     0.000000 
lattice_vector    -2.521604     0.000000     8.236065 
atom     6.702539     7.600523     2.981453  C  
atom     8.047006     7.600524     3.404904  C  
atom     6.486298     7.600524     1.910665  H  
atom     5.643390     7.600524     3.889256  C  
atom     8.333873     7.600524     4.831161  C  
atom     9.123272     7.600524     2.494721  C  
atom     5.929895     7.600524     5.313665  C  
atom     4.276236     7.600524     3.468189  C  
atom     7.257607     7.600524     5.741343  C  
atom     9.678339     7.600523     5.254611  C  
atom    10.450983     7.600524     2.922399  C  
atom     8.908251     7.600523     1.423679  H  
atom     4.831837     7.600524     6.230498  C  
atom     3.255250     7.600523     4.382579  C  
atom     4.063018     7.600524     2.397857  H  
atom     7.472628     7.600523     6.812385  H  
atom     9.894581     7.600524     6.325399  H  
atom    10.737488     7.600524     4.346808  C  
atom    11.549042     7.600524     2.005566  C  
atom     5.048605     7.600519     7.300105  H  
atom     3.536721     7.600524     5.781856  C  
atom     2.218684     7.600524     4.044846  H  
atom    12.104643     7.600524     4.767876  C  
atom    12.844158     7.600524     2.454208  C  
atom    11.332273     7.600519     0.935959  H  
atom     2.711261     7.600525     6.493989  H  
atom    12.317862     7.600524     5.838207  H  
atom    13.125628     7.600523     3.853485  C  
atom    13.669618     7.600525     1.742075  H  
atom    14.162195     7.600524     4.191218  H  
atom     1.976919     3.473898     2.981453  C  
atom     3.321385     3.473897     3.404904  C  
atom     1.760677     3.473897     1.910665  H  
atom     0.917770     3.473898     3.889256  C  
atom     3.608253     3.473897     4.831161  C  
atom     4.397652     3.473898     2.494721  C  
atom     1.204274     3.473898     5.313666  C  
atom    -0.449385     3.473898     3.468189  C  
atom     2.531986     3.473898     5.741343  C  
atom     4.952719     3.473898     5.254611  C  
atom     5.725363     3.473898     2.922399  C  
atom     4.182630     3.473897     1.423680  H  
atom     0.106216     3.473898     6.230499  C  
atom    -1.470371     3.473897     4.382580  C  
atom    -0.662603     3.473897     2.397857  H  
atom     2.747007     3.473897     6.812386  H  
atom     5.168961     3.473897     6.325399  H  
atom     6.011868     3.473898     4.346809  C  
atom     6.823421     3.473898     2.005566  C  
atom     0.322985     3.473893     7.300105  H  
atom    -1.188900     3.473898     5.781857  C  
atom    -2.506937     3.473897     4.044846  H  
atom     7.379022     3.473898     4.767876  C  
atom     8.118538     3.473898     2.454208  C  
atom     6.606652     3.473893     0.935960  H  
atom    -2.014359     3.473898     6.493990  H  
atom     7.592240     3.473897     5.838207  H  
atom     8.400007     3.473897     3.853485  C  
atom     8.943997     3.473898     1.742075  H  
atom     9.436575     3.473897     4.191218  H  
