####### BEGIN STRUCTURE #######
#structure_number = 1
#Z = 2
#number_of_atoms_in_molecule = 30 
#unit_cell_volume = 588.093201 cubic Angstrom
#attempted_spacegroup = 2
#attempted_wyckoff_position = 2i
#site_symmetry_group = 1
#SPGLIB_detected_spacegroup = 2
#"All distances in Angstroms and using Cartesian coordinate system"
lattice_vector    10.120208     0.000000     0.000000 
lattice_vector     6.207600     4.490598     0.000000 
lattice_vector     9.876584     3.737410    12.940546 
atom    15.482514     7.859396     8.478251  C  
atom    15.838886     7.105630     9.614796  C  
atom    14.555704     8.437326     8.497396  H  
atom    16.277496     7.886571     7.332315  C  
atom    17.072742     6.335329     9.587777  C  
atom    15.041090     7.071435    10.776321  C  
atom    17.510220     7.117989     7.305671  C  
atom    15.922319     8.647057     6.173902  C  
atom    17.870543     6.369524     8.426253  C  
atom    17.429119     5.581562    10.724324  C  
atom    15.401411     6.322972    11.896894  C  
atom    14.114189     7.649194    10.796729  H  
atom    18.312559     7.156039     6.121986  C  
atom    16.722050     8.654268     5.060842  C  
atom    14.995872     9.223498     6.195694  H  
atom    18.797441     5.791765     8.405845  H  
atom    18.355930     5.003632    10.705178  H  
atom    16.634132     5.554388    11.870259  C  
atom    14.599075     6.284920    13.080589  C  
atom    19.237076     6.576430     6.102632  H  
atom    17.932718     7.898764     5.034470  C  
atom    16.436073     9.238241     4.185783  H  
atom    16.989307     4.793902    13.028672  C  
atom    14.978916     5.542198    14.168104  C  
atom    13.674567     6.864534    13.099941  H  
atom    18.553902     7.914049     4.138684  H  
atom    17.915764     4.217461    13.006879  H  
atom    16.189585     4.786691    14.141733  C  
atom    14.357727     5.526913    15.063881  H  
atom    16.475563     4.202716    15.016791  H  
atom    10.721876     0.368611     4.462296  C  
atom    10.365503     1.122377     3.325751  C  
atom    11.648685    -0.209319     4.443150  H  
atom     9.926893     0.341437     5.608231  C  
atom     9.131645     1.892678     3.352768  C  
atom    11.163301     1.156573     2.164225  C  
atom     8.694174     1.110018     5.634875  C  
atom    10.282070    -0.419049     6.766644  C  
atom     8.333846     1.858483     4.514293  C  
atom     8.775272     2.646445     2.216222  C  
atom    10.802981     1.905035     1.043652  C  
atom    12.090200     0.578814     2.143816  H  
atom     7.891833     1.071969     6.818560  C  
atom     9.482342    -0.426260     7.879704  C  
atom    11.208519    -0.995491     6.744852  H  
atom     7.406947     2.436242     4.534702  H  
atom     7.848463     3.224376     2.235368  H  
atom     9.570259     2.673620     1.070287  C  
atom    11.605316     1.943087    -0.140043  C  
atom     6.967316     1.651576     6.837914  H  
atom     8.271673     0.329244     7.906076  C  
atom     9.768317    -1.010235     8.754764  H  
atom     9.215081     3.434105    -0.088126  C  
atom    11.225473     2.685811    -1.227558  C  
atom    12.529824     1.363473    -0.159396  H  
atom     7.650489     0.313959     8.801862  H  
atom     8.288628     4.010546    -0.066333  H  
atom    10.014806     3.441316    -1.201187  C  
atom    11.846664     2.701094    -2.123334  H  
atom     9.728828     4.025291    -2.076246  H  
#######  END  STRUCTURE #######

####### BEGIN STRUCTURE #######
#structure_number = 2
#Z = 2
#number_of_atoms_in_molecule = 30 
#unit_cell_volume = 611.386475 cubic Angstrom
#attempted_spacegroup = 2
#attempted_wyckoff_position = 2i
#site_symmetry_group = 1
#SPGLIB_detected_spacegroup = 2
#"All distances in Angstroms and using Cartesian coordinate system"
lattice_vector    11.380790     0.000000     0.000000 
lattice_vector     0.697822     7.546807     0.000000 
lattice_vector   -10.408546     1.354128     7.118364 
atom    -5.685867    -0.717421     5.720674  C  
atom    -4.933149     0.431783     5.405006  C  
atom    -5.176382    -1.681786     5.782134  H  
atom    -7.059778    -0.657871     5.954622  C  
atom    -5.612864     1.715384     5.322176  C  
atom    -3.544978     0.380634     5.165929  C  
atom    -7.738451     0.624211     5.872792  C  
atom    -7.831553    -1.819386     6.273458  C  
atom    -7.001036     1.766534     5.561252  C  
atom    -4.860145     2.864588     5.006508  C  
atom    -2.807569     1.522950     4.854390  C  
atom    -3.034362    -0.583139     5.227385  H  
atom    -9.147799     0.666809     6.114110  C  
atom    -9.180906    -1.731643     6.497216  C  
atom    -7.320069    -2.781555     6.334191  H  
atom    -7.511651     2.730306     5.499797  H  
atom    -5.369631     3.828952     4.945047  H  
atom    -3.486236     2.805038     4.772559  C  
atom    -1.398216     1.480358     4.613071  C  
atom    -9.656577     1.630186     6.050071  H  
atom    -9.847689    -0.472260     6.416237  C  
atom    -9.754663    -2.626868     6.737869  H  
atom    -2.714462     3.966553     4.453722  C  
atom    -0.698325     2.619427     4.310945  C  
atom    -0.889441     0.516985     4.677120  H  
atom   -10.922199    -0.422998     6.593831  H  
atom    -3.225946     4.928722     4.392991  H  
atom    -1.365107     3.878810     4.229966  C  
atom     0.376179     2.570158     4.133351  H  
atom    -0.791351     4.774035     3.989312  H  
atom     7.355932     9.618356     1.397690  C  
atom     6.603214     8.469153     1.713359  C  
atom     6.846448    10.582721     1.336231  H  
atom     8.729843     9.558806     1.163743  C  
atom     7.282931     7.185551     1.796188  C  
atom     5.215045     8.520302     1.952435  C  
atom     9.408518     8.276725     1.245572  C  
atom     9.501619    10.720320     0.844906  C  
atom     8.671101     7.134401     1.557112  C  
atom     6.530210     6.036347     2.111857  C  
atom     4.477634     7.377986     2.263974  C  
atom     4.704426     9.484075     1.890979  H  
atom    10.817865     8.234127     1.004255  C  
atom    10.850972    10.632578     0.621149  C  
atom     8.990135    11.682492     0.784173  H  
atom     9.181717     6.170629     1.618568  H  
atom     7.039698     5.071984     2.173317  H  
atom     5.156301     6.095897     2.345805  C  
atom     3.068281     7.420578     2.505293  C  
atom    11.326642     7.270751     1.068293  H  
atom    11.517755     9.373196     0.702127  C  
atom    11.424729    11.527804     0.380495  H  
atom     4.384526     4.934384     2.664642  C  
atom     2.368390     6.281509     2.807420  C  
atom     2.559506     8.383950     2.441244  H  
atom    12.592265     9.323934     0.524533  H  
atom     4.896010     3.972213     2.725374  H  
atom     3.035173     5.022125     2.888398  C  
atom     1.293887     6.330777     2.985013  H  
atom     2.461417     4.126901     3.129052  H  
#######  END  STRUCTURE #######

####### BEGIN STRUCTURE #######
#structure_number = 3
#Z = 2
#number_of_atoms_in_molecule = 30 
#unit_cell_volume = 683.327393 cubic Angstrom
#attempted_spacegroup = 3
#attempted_wyckoff_position = 2e
#site_symmetry_group = 1
#SPGLIB_detected_spacegroup = 3
#"All distances in Angstroms and using Cartesian coordinate system"
lattice_vector     7.744172     0.000000     0.000000 
lattice_vector     0.000000     7.519246     0.000000 
lattice_vector     2.662755     0.000000    11.734905 
atom     4.138423     3.880602     9.529671  C  
atom     5.453842     3.902659     9.023621  C  
atom     3.653499     2.916246     9.697649  H  
atom     3.440038     5.052802     9.819693  C  
atom     6.098256     5.187503     8.799097  C  
atom     6.166418     2.723314     8.726682  C  
atom     4.083949     6.335966     9.596318  C  
atom     2.104261     5.039538    10.331489  C  
atom     5.385680     6.366849     9.096035  C  
atom     7.413674     5.209559     8.293044  C  
atom     7.468139     2.754199     8.226402  C  
atom     5.682615     1.758362     8.894521  H  
atom     3.352734     7.527946     9.897670  C  
atom     1.441258     6.207177    10.606379  C  
atom     1.622152     4.074757    10.498349  H  
atom     5.869481     7.331801     8.928197  H  
atom     7.898595     6.173916     8.125067  H  
atom     8.112060     4.037360     8.003022  C  
atom     8.199364     1.562217     7.925045  C  
atom     3.836896     8.491060     9.727239  H  
atom     2.073614     7.467704    10.386374  C  
atom     0.422971     6.179431    10.994784  H  
atom     9.447834     4.050624     7.491228  C  
atom     9.478483     1.622458     7.436345  C  
atom     7.715205     0.599105     8.095487  H  
atom     1.528849     8.385782    10.607510  H  
atom     9.929945     5.015405     7.324368  H  
atom    10.110840     2.882984     7.216338  C  
atom    10.023235     0.704382     7.215209  H  
atom    11.129126     2.910731     6.827932  H  
atom     6.268503     3.880602     2.205234  C  
atom     4.953084     3.902659     2.711285  C  
atom     6.753427     2.916246     2.037256  H  
atom     6.966888     5.052802     1.915212  C  
atom     4.308671     5.187503     2.935809  C  
atom     4.240509     2.723314     3.008223  C  
atom     6.322978     6.335966     2.138587  C  
atom     8.302665     5.039538     1.403417  C  
atom     5.021247     6.366849     2.638870  C  
atom     2.993252     5.209559     3.441860  C  
atom     2.938788     2.754199     3.508503  C  
atom     4.724311     1.758362     2.840384  H  
atom     7.054193     7.527946     1.837236  C  
atom     8.965669     6.207177     1.128526  C  
atom     8.784774     4.074757     1.236556  H  
atom     4.537446     7.331801     2.806709  H  
atom     2.508331     6.173916     3.609839  H  
atom     2.294867     4.037360     3.731882  C  
atom     2.207563     1.562217     3.809859  C  
atom     6.570030     8.491060     2.007666  H  
atom     8.333311     7.467704     1.348532  C  
atom     9.983956     6.179431     0.740121  H  
atom     0.959092     4.050624     4.243677  C  
atom     0.928444     1.622458     4.298560  C  
atom     2.691722     0.599105     3.639419  H  
atom     8.878077     8.385782     1.127395  H  
atom     0.476982     5.015405     4.410537  H  
atom     0.296087     2.882984     4.518567  C  
atom     0.383690     0.704382     4.519697  H  
atom    -0.722198     2.910731     4.906973  H  
#######  END  STRUCTURE #######

####### BEGIN STRUCTURE #######
#structure_number = 4
#Z = 2
#number_of_atoms_in_molecule = 30 
#unit_cell_volume = 576.607300 cubic Angstrom
#attempted_spacegroup = 3
#attempted_wyckoff_position = 2e
#site_symmetry_group = 1
#SPGLIB_detected_spacegroup = 3
#"All distances in Angstroms and using Cartesian coordinate system"
lattice_vector    27.777678     0.000000     0.000000 
lattice_vector     0.000000     4.018401     0.000000 
lattice_vector    -1.427577     0.000000     5.165721 
atom    20.577576     2.492384     2.380915  C  
atom    19.423550     1.683199     2.362607  C  
atom    20.896456     2.978169     1.455887  H  
atom    21.322571     2.688316     3.543887  C  
atom    19.000467     1.035705     3.594782  C  
atom    18.665585     1.478744     1.191932  C  
atom    20.899519     2.042392     4.774673  C  
atom    22.495995     3.506095     3.570845  C  
atom    19.758430     1.240159     4.765458  C  
atom    17.846432     0.226519     3.576474  C  
atom    17.524508     0.676515     1.182718  C  
atom    18.983341     1.964246     0.266361  H  
atom    21.675957     2.252933     5.957515  C  
atom    23.209692     3.679931     4.727969  C  
atom    22.812363     3.990217     2.645311  H  
atom    19.440674     0.754658     5.691028  H  
atom    17.527555    -0.259266     4.501502  H  
atom    17.101446     0.030585     2.413502  C  
atom    16.748049     0.465969    -0.000125  C  
atom    21.358231     1.765288     6.880714  H  
atom    22.794426     3.044910     5.936894  C  
atom    24.102573     4.305471     4.731004  H  
atom    15.928021    -0.787192     2.386544  C  
atom    15.629593    -0.326007     0.020496  C  
atom    17.065781     0.953622    -0.923319  H  
atom    23.377132     3.192139     6.846460  H  
atom    15.611656    -1.271313     3.312078  H  
atom    15.214321    -0.961028     1.229421  C  
atom    15.046894    -0.473232    -0.889070  H  
atom    14.321446    -1.586567     1.226386  H  
atom     5.772524     2.492384     2.784806  C  
atom     6.926553     1.683199     2.803114  C  
atom     5.453644     2.978169     3.709834  H  
atom     5.027532     2.688316     1.621834  C  
atom     7.349636     1.035705     1.570939  C  
atom     7.684519     1.478744     3.973788  C  
atom     5.450583     2.042392     0.391048  C  
atom     3.854108     3.506095     1.594876  C  
atom     6.591672     1.240159     0.400263  C  
atom     8.503667     0.226519     1.589247  C  
atom     8.825596     0.676515     3.983003  C  
atom     7.366760     1.964246     4.899360  H  
atom     4.674142     2.252933    -0.791794  C  
atom     3.140409     3.679931     0.437753  C  
atom     3.537740     3.990217     2.520410  H  
atom     6.909429     0.754658    -0.525307  H  
atom     8.822547    -0.259266     0.664219  H  
atom     9.248659     0.030585     2.752219  C  
atom     9.602053     0.465969     5.165846  C  
atom     4.991871     1.765288    -1.714994  H  
atom     3.555679     3.044910    -0.771173  C  
atom     2.247530     4.305471     0.434717  H  
atom    10.422083    -0.787192     2.779176  C  
atom    10.720510    -0.326007     5.145225  C  
atom     9.284324     0.953622     6.089039  H  
atom     2.972970     3.192139    -1.680739  H  
atom    10.738448    -1.271313     1.853643  H  
atom    11.135782    -0.961028     3.936300  C  
atom    11.303209    -0.473232     6.054791  H  
atom    12.028657    -1.586567     3.939335  H  
#######  END  STRUCTURE #######

####### BEGIN STRUCTURE #######
#structure_number = 5
#Z = 2
#number_of_atoms_in_molecule = 30 
#unit_cell_volume = 629.950562 cubic Angstrom
#attempted_spacegroup = 4
#attempted_wyckoff_position = 2a
#site_symmetry_group = 1
#SPGLIB_detected_spacegroup = 4
#"All distances in Angstroms and using Cartesian coordinate system"
lattice_vector     3.980608     0.000000     0.000000 
lattice_vector     0.000000    13.239057     0.000000 
lattice_vector     2.065536     0.000000    11.953634 
atom     2.773414    12.203959     1.480461  C  
atom     3.234297    12.197851     2.812546  C  
atom     2.378823    13.132961     1.062604  H  
atom     2.805682    11.059437     0.683633  C  
atom     3.758433    10.959805     3.368446  C  
atom     3.204290    13.349186     3.625145  C  
atom     3.329983     9.823220     1.238524  C  
atom     2.338130    11.056310    -0.668327  C  
atom     3.788440     9.808468     2.555848  C  
atom     4.219317    10.953697     4.700531  C  
atom     3.662743    13.334433     4.942459  C  
atom     2.810174    14.278844     3.208278  H  
atom     3.354268     8.658791     0.407972  C  
atom     2.380532     9.916320    -1.428027  C  
atom     1.944397    11.985750    -1.083282  H  
atom     4.182556     8.878812     2.972713  H  
atom     4.613905    10.024695     5.118387  H  
atom     4.187047    12.098219     5.497359  C  
atom     3.638461    14.498865     5.773020  C  
atom     3.746282     7.730410     0.826881  H  
atom     2.895034     8.701775    -0.882712  C  
atom     2.018923     9.930732    -2.456409  H  
atom     4.654600    12.101346     6.849319  C  
atom     4.097695    14.455880     7.063704  C  
atom     3.246457    15.427244     5.354107  H  
atom     2.917247     7.804316    -1.501268  H  
atom     5.048333    11.171905     7.264273  H  
atom     4.612199    13.241336     7.609020  C  
atom     4.075479    15.353337     7.682250  H  
atom     4.973808    13.226924     8.637400  H  
atom     3.272730     5.584430    10.473172  C  
atom     2.811847     5.578324     9.141088  C  
atom     3.667320     6.513433    10.891030  H  
atom     3.240462     4.439908    11.270000  C  
atom     2.287711     4.340276     8.585187  C  
atom     2.841854     6.729656     8.328490  C  
atom     2.716161     3.203692    10.715109  C  
atom     3.708014     4.436783    12.621962  C  
atom     2.257704     3.188939     9.397787  C  
atom     1.826827     4.334170     7.253103  C  
atom     2.383401     6.714903     7.011176  C  
atom     3.235970     7.659316     8.745357  H  
atom     2.691876     2.039262    11.545661  C  
atom     3.665612     3.296793    13.381660  C  
atom     4.101747     5.366221    13.036916  H  
atom     1.863588     2.259283     8.980921  H  
atom     1.432239     3.405167     6.835248  H  
atom     1.859097     5.478689     6.456275  C  
atom     2.407683     7.879336     6.180614  C  
atom     2.299862     1.110883    11.126754  H  
atom     3.151110     2.082246    12.836347  C  
atom     4.027222     3.311203    14.410044  H  
atom     1.391544     5.481817     5.104315  C  
atom     1.948449     7.836352     4.889930  C  
atom     2.799687     8.807715     6.599527  H  
atom     3.128897     1.184788    13.454903  H  
atom     0.997811     4.552376     4.689361  H  
atom     1.433946     6.621807     4.344615  C  
atom     1.970665     8.733809     4.271383  H  
atom     1.072336     6.607395     3.316235  H  
#######  END  STRUCTURE #######

####### BEGIN STRUCTURE #######
#structure_number = 6
#Z = 2
#number_of_atoms_in_molecule = 30 
#unit_cell_volume = 681.503723 cubic Angstrom
#attempted_spacegroup = 4
#attempted_wyckoff_position = 2a
#site_symmetry_group = 1
#SPGLIB_detected_spacegroup = 4
#"All distances in Angstroms and using Cartesian coordinate system"
lattice_vector     7.754403     0.000000     0.000000 
lattice_vector     0.000000    22.467541     0.000000 
lattice_vector    -0.676697     0.000000     3.911689 
atom     5.520530    14.304055     0.149610  C  
atom     5.502098    15.548111     0.812096  C  
atom     6.481081    13.815755    -0.029981  H  
atom     4.349605    13.681555    -0.283212  C  
atom     4.222435    16.198139     1.049645  C  
atom     6.680302    16.184792     1.251710  C  
atom     3.071532    14.330314    -0.045161  C  
atom     4.359409    12.420238    -0.958042  C  
atom     3.044229    15.561459     0.610032  C  
atom     4.204003    17.442196     1.712131  C  
atom     6.652999    17.415930     1.906896  C  
atom     7.641426    15.697305     1.072922  H  
atom     1.880936    13.678674    -0.496993  C  
atom     3.193251    11.832111    -1.373618  C  
atom     5.320394    11.934605    -1.136201  H  
atom     2.083108    16.048946     0.788819  H  
atom     3.243452    17.930494     1.891722  H  
atom     5.374929    18.064697     2.144953  C  
atom     7.843596    18.067577     2.358734  C  
atom     0.921856    14.168267    -0.319472  H  
atom     1.937781    12.469729    -1.140287  C  
atom     3.218435    10.871099    -1.887775  H  
atom     5.365126    19.326012     2.819782  C  
atom     7.786751    19.276522     3.002028  C  
atom     8.802670    17.577978     2.181220  H  
atom     1.021157    11.988168    -1.481512  H  
atom     4.404139    19.811646     2.997942  H  
atom     6.531282    19.914137     3.235360  C  
atom     8.703374    19.758076     3.343247  H  
atom     6.506097    20.875151     3.749516  H  
atom     1.557176     3.070285     3.762079  C  
atom     1.575608     4.314339     3.099593  C  
atom     0.596625     2.581984     3.941670  H  
atom     2.728101     2.447783     4.194901  C  
atom     2.855270     4.964369     2.862044  C  
atom     0.397404     4.951023     2.659979  C  
atom     4.006174     3.096544     3.956851  C  
atom     2.718298     1.186467     4.869730  C  
atom     4.033476     4.327688     3.301657  C  
atom     2.873702     6.208426     2.199558  C  
atom     0.424707     6.182159     2.004793  C  
atom    -0.563719     4.463533     2.838767  H  
atom     5.196770     2.444904     4.408682  C  
atom     3.884455     0.598341     5.285308  C  
atom     1.757312     0.700836     5.047890  H  
atom     4.994598     4.815175     3.122870  H  
atom     3.834253     6.696725     2.019968  H  
atom     1.702777     6.830928     1.766737  C  
atom    -0.765891     6.833805     1.552955  C  
atom     6.155850     2.934496     4.231161  H  
atom     5.139925     1.235957     5.051976  C  
atom     3.859270    -0.362671     5.799465  H  
atom     1.712580     8.092241     1.091907  C  
atom    -0.709045     8.042751     0.909662  C  
atom    -1.724966     6.344207     1.730469  H  
atom     6.056549     0.754397     5.393201  H  
atom     2.673567     8.577875     0.913748  H  
atom     0.546424     8.680367     0.676329  C  
atom    -1.625669     8.524303     0.568442  H  
atom     0.571609     9.641379     0.162173  H  
#######  END  STRUCTURE #######

####### BEGIN STRUCTURE #######
#structure_number = 7
#Z = 2
#number_of_atoms_in_molecule = 30 
#unit_cell_volume = 569.508301 cubic Angstrom
#attempted_spacegroup = 5
#attempted_wyckoff_position = 2a
#site_symmetry_group = 2
#SPGLIB_detected_spacegroup = 12
#"All distances in Angstroms and using Cartesian coordinate system"
lattice_vector     5.274776     0.000000     0.000000 
lattice_vector     0.000000     8.586093     0.000000 
lattice_vector    -5.140031     0.000000    12.574781 
atom     4.686448     2.983765     1.085400  C  
atom     5.274775     3.663863     0.000001  C  
atom     4.686026     1.891468     1.085879  H  
atom     4.105671     3.664797     2.155257  C  
atom     5.274775     5.118519     0.000001  C  
atom     5.863101     2.983765    -1.085397  C  
atom     4.105668     5.117584     2.155262  C  
atom     3.504369     2.982526     3.259434  C  
atom     4.686448     5.798617     1.085400  C  
atom     5.863101     5.798617    -1.085397  C  
atom     6.443878     3.664797    -2.155256  C  
atom     5.863523     1.891468    -1.085876  H  
atom     3.504369     5.799856     3.259435  C  
atom     2.939265     3.677616     4.296723  C  
atom     3.504104     1.891300     3.257226  H  
atom     4.686028     6.890913     1.085880  H  
atom     5.863522     6.890913    -1.085877  H  
atom     6.443881     5.117584    -2.155260  C  
atom     7.045180     2.982526    -3.259432  C  
atom     3.504107     6.891083     3.257230  H  
atom     2.939266     5.104765     4.296723  C  
atom     2.482908     3.142253     5.129531  H  
atom     7.045180     5.799856    -3.259433  C  
atom     7.610284     3.677616    -4.296721  C  
atom     7.045446     1.891300    -3.257225  H  
atom     2.482906     5.640127     5.129533  H  
atom     7.045442     6.891083    -3.257228  H  
atom     7.610284     5.104765    -4.296722  C  
atom     8.066641     3.142253    -5.129529  H  
atom     8.066645     5.640127    -5.129533  H  
atom     2.049061    -1.309281     1.085400  C  
atom     2.637388    -0.629183     0.000001  C  
atom     2.048639    -2.401578     1.085879  H  
atom     1.468283    -0.628250     2.155257  C  
atom     2.637387     0.825472     0.000001  C  
atom     3.225713    -1.309281    -1.085397  C  
atom     1.468281     0.824538     2.155262  C  
atom     0.866982    -1.310520     3.259434  C  
atom     2.049060     1.505570     1.085400  C  
atom     3.225714     1.505570    -1.085397  C  
atom     3.806491    -0.628250    -2.155256  C  
atom     3.226136    -2.401578    -1.085876  H  
atom     0.866982     1.506809     3.259435  C  
atom     0.301878    -0.615430     4.296723  C  
atom     0.866716    -2.401746     3.257226  H  
atom     2.048640     2.597867     1.085880  H  
atom     3.226134     2.597867    -1.085877  H  
atom     3.806494     0.824538    -2.155260  C  
atom     4.407792    -1.310520    -3.259432  C  
atom     0.866720     2.598037     3.257230  H  
atom     0.301878     0.811719     4.296723  C  
atom    -0.154479    -1.150793     5.129531  H  
atom     4.407792     1.506809    -3.259433  C  
atom     4.972896    -0.615430    -4.296721  C  
atom     4.408058    -2.401746    -3.257225  H  
atom    -0.154482     1.347081     5.129533  H  
atom     4.408054     2.598037    -3.257228  H  
atom     4.972897     0.811719    -4.296722  C  
atom     5.429253    -1.150793    -5.129529  H  
atom     5.429256     1.347081    -5.129533  H  
#######  END  STRUCTURE #######

####### BEGIN STRUCTURE #######
#structure_number = 8
#Z = 2
#number_of_atoms_in_molecule = 30 
#unit_cell_volume = 595.293579 cubic Angstrom
#attempted_spacegroup = 5
#attempted_wyckoff_position = 2b
#site_symmetry_group = 2
#SPGLIB_detected_spacegroup = 12
#"All distances in Angstroms and using Cartesian coordinate system"
lattice_vector     6.673818     0.000000     0.000000 
lattice_vector     0.000000    13.772206     0.000000 
lattice_vector    -2.020344     0.000000     6.476693 
atom    -0.897399    10.609221     1.835294  C  
atom    -0.951668    11.843809     2.513295  C  
atom    -0.810349    10.608596     0.746361  H  
atom    -0.952202     9.391883     2.514196  C  
atom    -1.068676    11.843809     3.963401  C  
atom    -0.897399    13.078403     1.835295  C  
atom    -1.068142     9.391883     3.962500  C  
atom    -0.897414     8.134602     1.834051  C  
atom    -1.122945    10.609221     4.641401  C  
atom    -1.122944    13.078403     4.641401  C  
atom    -0.952202    14.295735     2.514195  C  
atom    -0.810348    13.079024     0.746361  H  
atom    -1.122929     8.134602     4.642644  C  
atom    -0.952924     6.953369     2.526996  C  
atom    -0.809336     8.136412     0.746256  H  
atom    -1.209995    10.608596     5.730335  H  
atom    -1.209996    13.079024     5.730335  H  
atom    -1.068141    14.295735     3.962500  C  
atom    -0.897415    15.553020     1.834051  C  
atom    -1.211007     8.136412     5.730439  H  
atom    -1.067420     6.953369     3.949700  C  
atom    -0.908782     6.003721     1.993378  H  
atom    -1.122929    15.553020     4.642644  C  
atom    -0.952924    16.734251     2.526996  C  
atom    -0.809332    15.551208     0.746258  H  
atom    -1.111561     6.003721     4.483316  H  
atom    -1.211012    15.551208     5.730437  H  
atom    -1.067420    16.734251     3.949700  C  
atom    -0.908784    17.683895     1.993376  H  
atom    -1.111561    17.683895     4.483320  H  
atom     2.439509     3.723118     1.835292  C  
atom     2.385240     4.957708     2.513293  C  
atom     2.526559     3.722492     0.746359  H  
atom     2.384706     2.505779     2.514194  C  
atom     2.268232     4.957708     3.963399  C  
atom     2.439509     6.192300     1.835293  C  
atom     2.268766     2.505779     3.962498  C  
atom     2.439494     1.248499     1.834050  C  
atom     2.213964     3.723117     4.641399  C  
atom     2.213963     6.192300     4.641399  C  
atom     2.384706     7.409632     2.514194  C  
atom     2.526560     6.192922     0.746359  H  
atom     2.213979     1.248499     4.642642  C  
atom     2.383985     0.067267     2.526994  C  
atom     2.527572     1.250310     0.746254  H  
atom     2.126913     3.722492     5.730333  H  
atom     2.126913     6.192922     5.730333  H  
atom     2.268767     7.409632     3.962498  C  
atom     2.439494     8.666917     1.834050  C  
atom     2.125901     1.250310     5.730437  H  
atom     2.269489     0.067267     3.949698  C  
atom     2.428126    -0.882381     1.993377  H  
atom     2.213979     8.666917     4.642642  C  
atom     2.383984     9.848149     2.526994  C  
atom     2.527576     8.665105     0.746256  H  
atom     2.225347    -0.882381     4.483315  H  
atom     2.125896     8.665105     5.730435  H  
atom     2.269488     9.848149     3.949698  C  
atom     2.428125    10.797791     1.993374  H  
atom     2.225348    10.797791     4.483318  H  
#######  END  STRUCTURE #######

####### BEGIN STRUCTURE #######
#structure_number = 9
#Z = 2
#number_of_atoms_in_molecule = 30 
#unit_cell_volume = 655.100647 cubic Angstrom
#attempted_spacegroup = 6
#attempted_wyckoff_position = 2c
#site_symmetry_group = 1
#SPGLIB_detected_spacegroup = 6
#"All distances in Angstroms and using Cartesian coordinate system"
lattice_vector    14.702755     0.000000     0.000000 
lattice_vector     0.000000     7.942812     0.000000 
lattice_vector     2.187670     0.000000     5.609640 
atom    14.183891     5.454890     0.666628  C  
atom    13.380947     5.704043     1.798047  C  
atom    13.712559     5.071126    -0.241074  H  
atom    15.560102     5.682681     0.674301  C  
atom    14.009853     6.213923     3.006767  C  
atom    11.990047     5.475611     1.799540  C  
atom    16.188049     6.192763     1.881168  C  
atom    16.382627     5.430611    -0.468647  C  
atom    15.400755     6.442356     3.005274  C  
atom    13.206911     6.463077     4.138186  C  
atom    11.202762     5.725199     2.923640  C  
atom    11.517563     5.092120     0.892314  H  
atom    17.600481     6.419159     1.872003  C  
atom    17.732988     5.662373    -0.432373  C  
atom    15.909192     5.047216    -1.374156  H  
atom    15.873243     6.825844     3.912498  H  
atom    13.678245     6.846838     5.045887  H  
atom    11.830700     6.235284     4.130512  C  
atom     9.790321     5.498806     2.932810  C  
atom    18.071079     6.800182     2.779974  H  
atom    18.349930     6.162891     0.753405  C  
atom    18.345751     5.463684    -1.311910  H  
atom    11.008180     6.487353     5.273460  C  
atom     9.040874     5.755074     4.051408  C  
atom     9.319726     5.117795     2.024838  H  
atom    19.425999     6.337495     0.764249  H  
atom    11.481613     6.870749     6.178968  H  
atom     9.657815     6.255593     5.237186  C  
atom     7.964808     5.580467     4.040557  H  
atom     9.045053     6.454282     6.116722  H  
atom    14.183891     2.487922     0.666628  C  
atom    13.380947     2.238769     1.798047  C  
atom    13.712559     2.871686    -0.241074  H  
atom    15.560102     2.260131     0.674301  C  
atom    14.009853     1.728889     3.006767  C  
atom    11.990047     2.467201     1.799540  C  