#Number of atoms = 108
#Number of molecules = 6
#Number of molecule types = 2
#Z = 2
#mol_index = 0 30 42 54 84 96 
#mol_types = 0 1 1 0 1 1 
lattice_vector     3.997904     0.000000     0.000000 
lattice_vector     0.692335     7.144212     0.000000 
lattice_vector    -0.042058    -0.702983     4.952443 
atom     3.401395     3.877265     2.209449  C  
atom     2.945700     4.932561     3.025288  C  
atom     2.739904     3.487040     1.432593  H  
atom     4.669524     3.317886     2.367089  C  
atom     3.826972     5.450657     4.060392  C  
atom     1.665616     5.502855     2.873827  C  
atom     5.549994     3.835922     3.400257  C  
atom     5.139102     2.245477     1.544990  C  
atom     5.107056     4.880363     4.211854  C  
atom     3.371276     6.505952     4.876232  C  
atom     1.222681     6.547287     3.685420  C  
atom     1.003351     5.113636     2.097117  H  
atom     6.846315     3.249639     3.549020  C  
atom     6.389819     1.713982     1.723149  C  
atom     4.476214     1.857500     0.769665  H  
atom     5.769322     5.269581     4.988563  H  
atom     4.032768     6.896177     5.653088  H  
atom     2.103147     7.065331     4.718592  C  
atom    -0.073644     7.133578     3.536662  C  
atom     7.505692     3.638300     4.326975  H  
atom     7.254515     2.222496     2.738490  C  
atom     6.731812     0.895952     1.088794  H  
atom     1.633570     8.137739     5.540691  C  
atom    -0.481842     8.160721     4.347190  C  
atom    -0.733013     6.744923     2.758700  H  
atom     8.244436     1.784361     2.867452  H  
atom     2.296458     8.525716     6.316016  H  
atom     0.382853     8.669236     5.362532  C  
atom    -1.471760     8.598848     4.218224  H  
atom     0.040861     9.487265     5.996886  H  
atom     0.613580     4.476589     4.094411  H  
atom     0.839372     4.406998     3.025436  C  
atom    -0.167103     4.612800     2.087269  C  
atom    -1.184689     4.844260     2.417752  H  
atom     0.119668     4.524297     0.728977  C  
atom    -0.672338     4.686131    -0.009284  H  
atom     1.412778     4.230101     0.308570  C  
atom     1.638347     4.160465    -0.760315  H  
atom     2.419093     4.024232     1.246752  C  
atom     3.436542     3.792569     0.915938  H  
atom     2.132396     4.112724     2.605110  C  
atom     2.924244     3.950825     3.343388  H  
atom     2.115392     5.411495     2.821172  H  
atom     1.979193     4.459107     3.343609  C  
atom     1.659457     3.311407     2.625240  C  
atom     1.544021     3.360492     1.537793  H  
atom     1.486277     2.101248     3.288980  C  
atom     1.234566     1.198129     2.723725  H  
atom     1.632843     2.038467     4.671009  C  
atom     1.496534     1.086129     5.193234  H  
atom     1.952463     3.186165     5.389250  C  
atom     2.067613     3.136785     6.476728  H  
atom     2.125670     4.396405     4.725563  C  
atom     2.377264     5.299521     5.290689  H  
atom     1.246786     2.563963     2.742994  C  
atom     1.702481     1.508667     1.927155  C  
atom     1.908277     2.954188     3.519850  H  
atom    -0.021343     3.123343     2.585354  C  
atom     0.821209     0.990571     0.892050  C  
atom     2.982565     0.938373     2.078616  C  
atom    -0.901814     2.605307     1.552186  C  
atom    -0.490921     4.195751     3.407452  C  
atom    -0.458875     1.560866     0.740588  C  
atom     1.276905    -0.064724     0.076210  C  
atom     3.425500    -0.106059     1.267023  C  
atom     3.644830     1.327592     2.855326  H  
atom    -2.198134     3.191590     1.403423  C  
atom    -1.741638     4.727247     3.229294  C  
atom     0.171967     4.583728     4.182778  H  
atom    -1.121141     1.171647    -0.036120  H  
atom     0.615413    -0.454948    -0.700645  H  
atom     2.545034    -0.624102     0.233850  C  
atom     4.721826    -0.692350     1.415781  C  
atom    -2.857512     2.802929     0.625467  H  
atom    -2.606334     4.218732     2.213953  C  
atom    -2.083631     5.545277     3.863648  H  
atom     3.014611    -1.696511    -0.588248  C  
atom     5.130023    -1.719492     0.605252  C  
atom     5.381194    -0.303695     2.193742  H  
atom    -3.596255     4.656868     2.084991  H  
atom     2.351723    -2.084487    -1.363573  H  
atom     4.265327    -2.228008    -0.410089  C  
atom     6.119941    -2.157620     0.734219  H  
atom     4.607319    -3.046036    -1.044443  H  
atom     4.034601     1.964639     0.858032  H  
atom     3.808809     2.034231     1.927007  C  
atom     4.815283     1.828428     2.865174  C  
atom     5.832870     1.596968     2.534691  H  
atom     4.528512     1.916931     4.223465  C  
atom     5.320519     1.755097     4.961727  H  
atom     3.235403     2.211128     4.643873  C  
atom     3.009834     2.280764     5.712758  H  
atom     2.229088     2.416996     3.705690  C  
atom     1.211639     2.648659     4.036504  H  
atom     2.515785     2.328504     2.347332  C  
atom     1.723937     2.490403     1.609055  H  
atom     2.532789     1.029734     2.131271  H  
atom     2.668988     1.982121     1.608833  C  
atom     2.988724     3.129822     2.327203  C  
atom     3.104160     3.080736     3.414649  H  
atom     3.161903     4.339981     1.663463  C  
atom     3.413615     5.243100     2.228718  H  
atom     3.015337     4.402761     0.281434  C  
atom     3.151647     5.355099    -0.240791  H  
atom     2.695718     3.255063    -0.436808  C  
atom     2.580568     3.304444    -1.524285  H  
atom     2.522511     2.044824     0.226880  C  
atom     2.270917     1.141707    -0.338246  H  
