lattice_vector    40.549328     0.000000     0.000000 
lattice_vector    -4.648715     4.969394     0.000000 
lattice_vector    -2.794613    -0.861656     2.833736 
atom     5.940149     2.416861    -0.919501  C  
atom     5.795842     2.889518     0.400602  C  
atom     6.710658     1.672321    -1.132403  H  
atom     5.129632     2.873308    -1.959031  C  
atom     4.770235     3.881986     0.682803  C  
atom     6.611120     2.434803     1.456704  C  
atom     4.104750     3.863820    -1.677019  C  
atom     5.270655     2.400573    -3.301806  C  
atom     3.954959     4.336703    -0.373298  C  
atom     4.625928     4.354644     2.002907  C  
atom     6.461330     2.907684     2.760414  C  
atom     7.381786     1.690060     1.245053  H  
atom     3.283581     4.321935    -2.755035  C  
atom     4.460959     2.867781    -4.304117  C  
atom     6.041224     1.656782    -3.511744  H  
atom     3.184292     5.081444    -0.161648  H  
atom     3.855422     5.099184     2.215808  H  
atom     5.436450     3.898198     3.042436  C  
atom     7.282497     2.449571     3.838440  C  
atom     2.515684     5.067617    -2.542097  H  
atom     3.454559     3.841261    -4.027170  C  
atom     4.582522     2.497997    -5.322460  H  
atom     5.295424     4.370933     4.385211  C  
atom     7.111521     2.930244     5.110574  C  
atom     8.050385     1.703884     3.625502  H  
atom     2.822584     4.203601    -4.838252  H  
atom     4.524856     5.114722     4.595149  H  
atom     6.105118     3.903724     5.387523  C  
atom     7.743499     2.567902     5.921646  H  
atom     5.983557     4.273508     6.405862  H  
atom    27.165848     1.690877     3.753237  C  
atom    27.310156     1.218220     2.433134  C  
atom    26.395338     2.435417     3.966140  H  
atom    27.976372     1.234430     4.792768  C  
atom    28.335766     0.225752     2.150933  C  
atom    26.494881     1.672935     1.377033  C  
atom    29.001244     0.243919     4.510755  C  
atom    27.835348     1.707166     6.135542  C  
atom    29.151043    -0.228964     3.207035  C  
atom    28.480074    -0.246905     0.830830  C  
atom    26.644665     1.200054     0.073323  C  
atom    25.724215     2.417678     1.588684  H  
atom    29.822418    -0.214196     5.588772  C  
atom    28.645035     1.239957     7.137854  C  
atom    27.064770     2.450956     6.345481  H  
atom    29.921707    -0.973706     2.995385  H  
atom    29.250572    -0.991446     0.617928  H  
atom    27.669552     0.209541    -0.208700  C  
atom    25.823505     1.658167    -1.004704  C  
atom    30.590317    -0.959879     5.375834  H  
atom    29.651440     0.266478     6.860906  C  
atom    28.523481     1.609741     8.156196  H  
atom    27.810575    -0.263194    -1.551474  C  
atom    25.994484     1.177494    -2.276838  C  
atom    25.055616     2.403854    -0.791765  H  
atom    30.283417    -0.095863     7.671988  H  
atom    28.581139    -1.006984    -1.761413  H  
atom    27.000881     0.204014    -2.553787  C  
atom    25.362507     1.539836    -3.087910  H  
atom    27.122442    -0.165769    -3.572127  H
